NAME : amz1892.103151_103151.tour
COMMENT : Cost = 103151_103151
COMMENT : Found by LKH-AMZ [Keld Helsgaun] Sun May 11 15:02:44 2025
COMMENT : TW viol.: 0 #: 0
TYPE : TOUR
DIMENSION : 135
TOUR_SECTION
19
113
117
23
72
129
17
73
16
102
123
121
12
81
10
65
126
106
1
75
108
109
66
35
85
107
42
54
63
51
49
112
64
99
37
45
41
6
74
78
76
69
97
27
96
86
61
14
95
132
94
70
79
44
26
118
120
24
83
18
20
59
105
38
11
82
9
29
13
56
130
32
84
3
33
52
115
111
98
125
47
21
127
131
93
57
103
87
46
114
53
104
50
36
31
30
55
135
43
100
119
110
68
25
60
40
88
71
101
2
116
90
80
39
4
124
91
34
28
133
128
5
48
8
62
77
92
67
58
7
15
89
134
122
22
-1
EOF
